\ENCODING=ISO-8859-1
\Problem name: IloCplex

Minimize
 FOBJ: 40 _EQ1ND1#0 + 24 _EQ1ND2#1 + 4 _EQ1ND3#2 + 45 _EQ2ND1#3 + 27 _EQ2ND2#4
       + 4.5 _EQ2ND3#5 + 32 _EQ3ND1#6 + 19.2 _EQ3ND2#7 + 3.2 _EQ3ND3#8
       + 55 _EQ4ND1#9 + 33 _EQ4ND2#10 + 5.5 _EQ4ND3#11 + 1000 PEN1#12
       + 1000 PEN2#13 + 1000 PEN3#14 + 1000 PEN4#15
Subject To
 CAPEQ1: _EQ1ND1#0 + _EQ1ND2#1 + _EQ1ND3#2 - PEN1#12 <= 0
 CAPEQ2: _EQ2ND1#3 + _EQ2ND2#4 + _EQ2ND3#5 - PEN2#13 <= 0
 CAPEQ3: _EQ3ND1#6 + _EQ3ND2#7 + _EQ3ND3#8 - PEN3#14 <= 0
 CAPEQ4: _EQ4ND1#9 + _EQ4ND2#10 + _EQ4ND3#11 - PEN4#15 <= 0
 DNODE1: _EQ1ND1#0 + _EQ2ND1#3 + _EQ3ND1#6 + _EQ4ND1#9 >= 5
 DNODE2: _EQ1ND2#1 + _EQ2ND2#4 + _EQ3ND2#7 + _EQ4ND2#10 >= 4
 DNODE3: _EQ1ND3#2 + _EQ2ND3#5 + _EQ3ND3#8 + _EQ4ND3#11 >= 3
End
